p tdp 50 95
3 50
14 16
34 40
9 27
6 29
20 21
2 44
19 29
14 31
13 48
6 33
37 42
39 41
12 20
4 21
1 41
26 46
11 27
15 38
23 29
36 38
7 14
28 47
32 46
20 45
10 34
12 34
24 43
3 13
7 22
5 35
1 18
3 8
25 46
24 27
8 16
44 49
39 44
30 46
5 37
17 30
37 49
28 33
33 46
29 50
42 43
18 20
32 36
38 45
8 24
19 23
27 28
23 30
1 12
1 34
34 48
29 48
28 42
3 26
33 44
3 20
15 39
17 39
4 35
20 46
34 44
16 25
15 46
22 24
24 25
8 44
6 24
21 36
21 31
9 36
10 40
1 27
15 28
15 42
22 37
17 49
27 50
2 49
24 49
4 16
22 48
1 50
16 42
30 39
18 19
22 46
21 26
43 45
3 36
34 45
